p cnf 386 460
6 8 -11 21 22 0
6 8 -11 21 -22 0
6 8 -11 -21 23 0
6 8 -11 -21 -23 0
-11 1 2 24 25 0
-11 1 2 24 -25 0
-11 1 2 -24 26 0
-11 1 2 -24 -26 0
-5 3 17 27 28 0
-5 3 17 27 -28 0
-5 3 17 -27 29 0
-5 3 17 -27 -29 0
16 10 -14 30 31 0
16 10 -14 30 -31 0
16 10 -14 -30 32 0
16 10 -14 -30 -32 0
18 -8 11 33 34 0
18 -8 11 33 -34 0
18 -8 11 -33 35 0
18 -8 11 -33 -35 0
-6 19 -12 36 37 0
-6 19 -12 36 -37 0
-6 19 -12 -36 38 0
-6 19 -12 -36 -38 0
-12 -16 18 39 40 0
-12 -16 18 39 -40 0
-12 -16 18 -39 41 0
-12 -16 18 -39 -41 0
-17 -9 -14 42 43 0
-17 -9 -14 42 -43 0
-17 -9 -14 -42 44 0
-17 -9 -14 -42 -44 0
7 6 13 45 46 0
7 6 13 45 -46 0
7 6 13 -45 47 0
7 6 13 -45 -47 0
-5 15 16 48 49 0
-5 15 16 48 -49 0
-5 15 16 -48 50 0
-5 15 16 -48 -50 0
-19 -8 13 51 52 0
-19 -8 13 51 -52 0
-19 -8 13 -51 53 0
-19 -8 13 -51 -53 0
-6 -9 -7 54 55 0
-6 -9 -7 54 -55 0
-6 -9 -7 -54 56 0
-6 -9 -7 -54 -56 0
16 -1 10 57 58 0
16 -1 10 57 -58 0
16 -1 10 -57 59 0
16 -1 10 -57 -59 0
-14 -3 1 60 61 0
-14 -3 1 60 -61 0
-14 -3 1 -60 62 0
-14 -3 1 -60 -62 0
-5 -6 2 63 64 0
-5 -6 2 63 -64 0
-5 -6 2 -63 65 0
-5 -6 2 -63 -65 0
16 -2 14 66 67 0
16 -2 14 66 -67 0
16 -2 14 -66 68 0
16 -2 14 -66 -68 0
-16 2 10 69 70 0
-16 2 10 69 -70 0
-16 2 10 -69 71 0
-16 2 10 -69 -71 0
-11 17 4 72 73 0
-11 17 4 72 -73 0
-11 17 4 -72 74 0
-11 17 4 -72 -74 0
8 -17 -3 75 76 0
8 -17 -3 75 -76 0
8 -17 -3 -75 77 0
8 -17 -3 -75 -77 0
-15 -1 -18 78 79 0
-15 -1 -18 78 -79 0
-15 -1 -18 -78 80 0
-15 -1 -18 -78 -80 0
-18 14 13 81 82 0
-18 14 13 81 -82 0
-18 14 13 -81 83 0
-18 14 13 -81 -83 0
15 -18 9 84 85 0
15 -18 9 84 -85 0
15 -18 9 -84 86 0
15 -18 9 -84 -86 0
6 2 -7 87 88 0
6 2 -7 87 -88 0
6 2 -7 -87 89 0
6 2 -7 -87 -89 0
-9 8 12 90 91 0
-9 8 12 90 -91 0
-9 8 12 -90 92 0
-9 8 12 -90 -92 0
12 5 -2 93 94 0
12 5 -2 93 -94 0
12 5 -2 -93 95 0
12 5 -2 -93 -95 0
-5 -16 -7 96 97 0
-5 -16 -7 96 -97 0
-5 -16 -7 -96 98 0
-5 -16 -7 -96 -98 0
-11 16 -2 99 100 0
-11 16 -2 99 -100 0
-11 16 -2 -99 101 0
-11 16 -2 -99 -101 0
1 -10 19 102 103 0
1 -10 19 102 -103 0
1 -10 19 -102 104 0
1 -10 19 -102 -104 0
18 -20 17 105 106 0
18 -20 17 105 -106 0
18 -20 17 -105 107 0
18 -20 17 -105 -107 0
-14 -8 6 108 109 0
-14 -8 6 108 -109 0
-14 -8 6 -108 110 0
-14 -8 6 -108 -110 0
-9 -1 4 111 112 0
-9 -1 4 111 -112 0
-9 -1 4 -111 113 0
-9 -1 4 -111 -113 0
9 7 18 114 115 0
9 7 18 114 -115 0
9 7 18 -114 116 0
9 7 18 -114 -116 0
2 1 15 117 118 0
2 1 15 117 -118 0
2 1 15 -117 119 0
2 1 15 -117 -119 0
10 -8 -4 120 121 0
10 -8 -4 120 -121 0
10 -8 -4 -120 122 0
10 -8 -4 -120 -122 0
-7 10 8 123 124 0
-7 10 8 123 -124 0
-7 10 8 -123 125 0
-7 10 8 -123 -125 0
20 14 -4 126 127 0
20 14 -4 126 -127 0
20 14 -4 -126 128 0
20 14 -4 -126 -128 0
6 17 7 129 130 0
6 17 7 129 -130 0
6 17 7 -129 131 0
6 17 7 -129 -131 0
9 -8 4 132 133 0
9 -8 4 132 -133 0
9 -8 4 -132 134 0
9 -8 4 -132 -134 0
18 5 -12 135 136 0
18 5 -12 135 -136 0
18 5 -12 -135 137 0
18 5 -12 -135 -137 0
10 -12 19 138 139 0
10 -12 19 138 -139 0
10 -12 19 -138 140 0
10 -12 19 -138 -140 0
1 -11 6 141 142 0
1 -11 6 141 -142 0
1 -11 6 -141 143 0
1 -11 6 -141 -143 0
-11 16 -12 144 145 0
-11 16 -12 144 -145 0
-11 16 -12 -144 146 0
-11 16 -12 -144 -146 0
4 -11 7 147 148 0
4 -11 7 147 -148 0
4 -11 7 -147 149 0
4 -11 7 -147 -149 0
14 18 -9 150 151 0
14 18 -9 150 -151 0
14 18 -9 -150 152 0
14 18 -9 -150 -152 0
-17 -11 -2 153 154 0
-17 -11 -2 153 -154 0
-17 -11 -2 -153 155 0
-17 -11 -2 -153 -155 0
18 -13 9 156 157 0
18 -13 9 156 -157 0
18 -13 9 -156 158 0
18 -13 9 -156 -158 0
-9 8 4 159 160 0
-9 8 4 159 -160 0
-9 8 4 -159 161 0
-9 8 4 -159 -161 0
18 -6 -17 162 163 0
18 -6 -17 162 -163 0
18 -6 -17 -162 164 0
18 -6 -17 -162 -164 0
-8 -6 -13 165 166 0
-8 -6 -13 165 -166 0
-8 -6 -13 -165 167 0
-8 -6 -13 -165 -167 0
7 -4 8 168 169 0
7 -4 8 168 -169 0
7 -4 8 -168 170 0
7 -4 8 -168 -170 0
20 7 16 171 172 0
20 7 16 171 -172 0
20 7 16 -171 173 0
20 7 16 -171 -173 0
11 -12 -6 174 175 0
11 -12 -6 174 -175 0
11 -12 -6 -174 176 0
11 -12 -6 -174 -176 0
8 19 -12 177 178 0
8 19 -12 177 -178 0
8 19 -12 -177 179 0
8 19 -12 -177 -179 0
15 17 -6 180 181 0
15 17 -6 180 -181 0
15 17 -6 -180 182 0
15 17 -6 -180 -182 0
-14 -9 -8 183 184 0
-14 -9 -8 183 -184 0
-14 -9 -8 -183 185 0
-14 -9 -8 -183 -185 0
-10 16 19 186 187 0
-10 16 19 186 -187 0
-10 16 19 -186 188 0
-10 16 19 -186 -188 0
19 17 3 189 190 0
19 17 3 189 -190 0
19 17 3 -189 191 0
19 17 3 -189 -191 0
18 -16 11 192 193 0
18 -16 11 192 -193 0
18 -16 11 -192 194 0
18 -16 11 -192 -194 0
18 9 11 195 196 0
18 9 11 195 -196 0
18 9 11 -195 197 0
18 9 11 -195 -197 0
1 -18 16 198 199 0
1 -18 16 198 -199 0
1 -18 16 -198 200 0
1 -18 16 -198 -200 0
4 -3 -6 201 202 0
4 -3 -6 201 -202 0
4 -3 -6 -201 203 0
4 -3 -6 -201 -203 0
-12 14 -8 204 205 0
-12 14 -8 204 -205 0
-12 14 -8 -204 206 0
-12 14 -8 -204 -206 0
16 1 7 207 208 0
16 1 7 207 -208 0
16 1 7 -207 209 0
16 1 7 -207 -209 0
12 20 -9 210 211 0
12 20 -9 210 -211 0
12 20 -9 -210 212 0
12 20 -9 -210 -212 0
5 -9 16 213 214 0
5 -9 16 213 -214 0
5 -9 16 -213 215 0
5 -9 16 -213 -215 0
10 1 16 216 217 0
10 1 16 216 -217 0
10 1 16 -216 218 0
10 1 16 -216 -218 0
15 18 9 219 220 0
15 18 9 219 -220 0
15 18 9 -219 221 0
15 18 9 -219 -221 0
2 -14 11 222 223 0
2 -14 11 222 -223 0
2 -14 11 -222 224 0
2 -14 11 -222 -224 0
-4 3 6 225 226 0
-4 3 6 225 -226 0
-4 3 6 -225 227 0
-4 3 6 -225 -227 0
-20 16 -11 228 229 0
-20 16 -11 228 -229 0
-20 16 -11 -228 230 0
-20 16 -11 -228 -230 0
-18 -13 16 231 232 0
-18 -13 16 231 -232 0
-18 -13 16 -231 233 0
-18 -13 16 -231 -233 0
-15 17 3 234 235 0
-15 17 3 234 -235 0
-15 17 3 -234 236 0
-15 17 3 -234 -236 0
-17 18 20 237 238 0
-17 18 20 237 -238 0
-17 18 20 -237 239 0
-17 18 20 -237 -239 0
-14 6 16 240 241 0
-14 6 16 240 -241 0
-14 6 16 -240 242 0
-14 6 16 -240 -242 0
10 13 6 243 244 0
10 13 6 243 -244 0
10 13 6 -243 245 0
10 13 6 -243 -245 0
7 -3 -2 246 247 0
7 -3 -2 246 -247 0
7 -3 -2 -246 248 0
7 -3 -2 -246 -248 0
-4 13 -2 249 250 0
-4 13 -2 249 -250 0
-4 13 -2 -249 251 0
-4 13 -2 -249 -251 0
9 -8 13 252 253 0
9 -8 13 252 -253 0
9 -8 13 -252 254 0
9 -8 13 -252 -254 0
16 -10 20 255 256 0
16 -10 20 255 -256 0
16 -10 20 -255 257 0
16 -10 20 -255 -257 0
18 20 16 258 259 0
18 20 16 258 -259 0
18 20 16 -258 260 0
18 20 16 -258 -260 0
6 3 4 261 262 0
6 3 4 261 -262 0
6 3 4 -261 263 0
6 3 4 -261 -263 0
15 -2 18 264 265 0
15 -2 18 264 -265 0
15 -2 18 -264 266 0
15 -2 18 -264 -266 0
13 8 15 267 268 0
13 8 15 267 -268 0
13 8 15 -267 269 0
13 8 15 -267 -269 0
11 4 -19 270 271 0
11 4 -19 270 -271 0
11 4 -19 -270 272 0
11 4 -19 -270 -272 0
-19 6 -13 273 274 0
-19 6 -13 273 -274 0
-19 6 -13 -273 275 0
-19 6 -13 -273 -275 0
-17 -14 -16 276 277 0
-17 -14 -16 276 -277 0
-17 -14 -16 -276 278 0
-17 -14 -16 -276 -278 0
7 -11 -18 279 280 0
7 -11 -18 279 -280 0
7 -11 -18 -279 281 0
7 -11 -18 -279 -281 0
10 -8 -5 282 283 0
10 -8 -5 282 -283 0
10 -8 -5 -282 284 0
10 -8 -5 -282 -284 0
-13 -4 17 285 286 0
-13 -4 17 285 -286 0
-13 -4 17 -285 287 0
-13 -4 17 -285 -287 0
-5 12 -11 288 289 0
-5 12 -11 288 -289 0
-5 12 -11 -288 290 0
-5 12 -11 -288 -290 0
11 3 13 291 292 0
11 3 13 291 -292 0
11 3 13 -291 293 0
11 3 13 -291 -293 0
294 295 297 301 309 0
294 295 297 301 -309 0
294 295 297 -301 310 0
294 295 297 -301 -310 0
294 295 -297 302 311 0
294 295 -297 302 -311 0
294 295 -297 -302 312 0
294 295 -297 -302 -312 0
294 -295 298 303 313 0
294 -295 298 303 -313 0
294 -295 298 -303 314 0
294 -295 298 -303 -314 0
294 -295 -298 304 315 0
294 -295 -298 304 -315 0
294 -295 -298 -304 316 0
294 -295 -298 -304 -316 0
-294 296 299 305 317 0
-294 296 299 305 -317 0
-294 296 299 -305 318 0
-294 296 299 -305 -318 0
-294 296 -299 306 319 0
-294 296 -299 306 -319 0
-294 296 -299 -306 320 0
-294 296 -299 -306 -320 0
-294 -296 300 307 321 0
-294 -296 300 307 -321 0
-294 -296 300 -307 322 0
-294 -296 300 -307 -322 0
-294 -296 -300 308 323 0
-294 -296 -300 308 -323 0
-294 -296 -300 -308 324 0
-294 -296 -300 -308 -324 0
325 326 328 332 340 0
325 326 328 332 -340 0
325 326 328 -332 341 0
325 326 328 -332 -341 0
325 326 -328 333 342 0
325 326 -328 333 -342 0
325 326 -328 -333 343 0
325 326 -328 -333 -343 0
325 -326 329 334 344 0
325 -326 329 334 -344 0
325 -326 329 -334 345 0
325 -326 329 -334 -345 0
325 -326 -329 335 346 0
325 -326 -329 335 -346 0
325 -326 -329 -335 347 0
325 -326 -329 -335 -347 0
-325 327 330 336 348 0
-325 327 330 336 -348 0
-325 327 330 -336 349 0
-325 327 330 -336 -349 0
-325 327 -330 337 350 0
-325 327 -330 337 -350 0
-325 327 -330 -337 351 0
-325 327 -330 -337 -351 0
-325 -327 331 338 352 0
-325 -327 331 338 -352 0
-325 -327 331 -338 353 0
-325 -327 331 -338 -353 0
-325 -327 -331 339 354 0
-325 -327 -331 339 -354 0
-325 -327 -331 -339 355 0
-325 -327 -331 -339 -355 0
356 357 359 363 371 0
356 357 359 363 -371 0
356 357 359 -363 372 0
356 357 359 -363 -372 0
356 357 -359 364 373 0
356 357 -359 364 -373 0
356 357 -359 -364 374 0
356 357 -359 -364 -374 0
356 -357 360 365 375 0
356 -357 360 365 -375 0
356 -357 360 -365 376 0
356 -357 360 -365 -376 0
356 -357 -360 366 377 0
356 -357 -360 366 -377 0
356 -357 -360 -366 378 0
356 -357 -360 -366 -378 0
-356 358 361 367 379 0
-356 358 361 367 -379 0
-356 358 361 -367 380 0
-356 358 361 -367 -380 0
-356 358 -361 368 381 0
-356 358 -361 368 -381 0
-356 358 -361 -368 382 0
-356 358 -361 -368 -382 0
-356 -358 362 369 383 0
-356 -358 362 369 -383 0
-356 -358 362 -369 384 0
-356 -358 362 -369 -384 0
-356 -358 -362 370 385 0
-356 -358 -362 370 -385 0
-356 -358 -362 -370 386 0
-356 -358 -362 -370 -386 0

